set NODI := a b c d e f g;

param k := 8; 

param s :=

a 20
b 20
c 20 
d 20
e 20
f 20
g 20 ;

param c :=

a 25
b 25
c 21
d 18 
e 21 
f 12
g 18 ;

param t :=

a b 1
a c 5
a d 6
a e 1
a f 2
a g 6
b c 3
b d 7
b e 7
b f 5
b g 4
c d 8
c e 8
c f 3
c g 5
d e 2
d f 5
d g 1
e f 6
e g 7
f g 11
b a 1
c a 5
d a 6
e a 1
f a 2
g a 6
c b 3
d b 7
e b 7
f b 5
g b 4
d c 8
e c 8
f c 3
g c 5
e d 2
f d 5
g d 1
f e 6
g e 7
g f 11 ;



